\ Model timetable_copy
\ LP format - for model browsing. Use MPS format to capture full model detail.
\ Signature: 0x7a4c491b38120e16
Minimize
 
Subject To
 R429660: x[PGDE_Secondary_Curriculum_and_Pedagogy,Tutorial,09_00,Monday]
   + x[PGDE_Secondary_Curriculum_and_Pedagogy,Tutorial,09_00,Tuesday]
   + x[PGDE_Secondary_Curriculum_and_Pedagogy,Tutorial,09_00,Wednesday_My_Dudes]
   + x[PGDE_Secondary_Curriculum_and_Pedagogy,Tutorial,09_00,Out_of_Touch_Thursday]
   + x[PGDE_Secondary_Curriculum_and_Pedagogy,Tutorial,09_00,It's_Friday_Thennnnn]
   + x[PGDE_Secondary_Curriculum_and_Pedagogy,Tutorial,10_00,Monday]
   + x[PGDE_Secondary_Curriculum_and_Pedagogy,Tutorial,10_00,Tuesday]
   + x[PGDE_Secondary_Curriculum_and_Pedagogy,Tutorial,10_00,Wednesday_My_Dudes]
   + x[PGDE_Secondary_Curriculum_and_Pedagogy,Tutorial,10_00,Out_of_Touch_Thursday]
   + x[PGDE_Secondary_Curriculum_and_Pedagogy,Tutorial,10_00,It's_Friday_Thennnnn]
   + x[PGDE_Secondary_Curriculum_and_Pedagogy,Tutorial,11_00,Monday]
   + x[PGDE_Secondary_Curriculum_and_Pedagogy,Tutorial,11_00,Tuesday]
   + x[PGDE_Secondary_Curriculum_and_Pedagogy,Tutorial,11_00,Wednesday_My_Dudes]
   + x[PGDE_Secondary_Curriculum_and_Pedagogy,Tutorial,11_00,Out_of_Touch_Thursday]
   + x[PGDE_Secondary_Curriculum_and_Pedagogy,Tutorial,11_00,It's_Friday_Thennnnn]
   + x[PGDE_Secondary_Curriculum_and_Pedagogy,Tutorial,12_00,Monday]
   + x[PGDE_Secondary_Curriculum_and_Pedagogy,Tutorial,12_00,Tuesday]
   + x[PGDE_Secondary_Curriculum_and_Pedagogy,Tutorial,12_00,Wednesday_My_Dudes]
   + x[PGDE_Secondary_Curriculum_and_Pedagogy,Tutorial,12_00,Out_of_Touch_Thursday]
   + x[PGDE_Secondary_Curriculum_and_Pedagogy,Tutorial,12_00,It's_Friday_Thennnnn]
   + x[PGDE_Secondary_Curriculum_and_Pedagogy,Tutorial,13_00,Monday]
   + x[PGDE_Secondary_Curriculum_and_Pedagogy,Tutorial,13_00,Tuesday]
   + x[PGDE_Secondary_Curriculum_and_Pedagogy,Tutorial,13_00,Wednesday_My_Dudes]
   + x[PGDE_Secondary_Curriculum_and_Pedagogy,Tutorial,13_00,Out_of_Touch_Thursday]
   + x[PGDE_Secondary_Curriculum_and_Pedagogy,Tutorial,13_00,It's_Friday_Thennnnn]
   + x[PGDE_Secondary_Curriculum_and_Pedagogy,Tutorial,14_00,Monday]
   + x[PGDE_Secondary_Curriculum_and_Pedagogy,Tutorial,14_00,Tuesday]
   + x[PGDE_Secondary_Curriculum_and_Pedagogy,Tutorial,14_00,Wednesday_My_Dudes]
   + x[PGDE_Secondary_Curriculum_and_Pedagogy,Tutorial,14_00,Out_of_Touch_Thursday]
   + x[PGDE_Secondary_Curriculum_and_Pedagogy,Tutorial,14_00,It's_Friday_Thennnnn]
   + x[PGDE_Secondary_Curriculum_and_Pedagogy,Tutorial,15_00,Monday]
   + x[PGDE_Secondary_Curriculum_and_Pedagogy,Tutorial,15_00,Tuesday]
   + x[PGDE_Secondary_Curriculum_and_Pedagogy,Tutorial,15_00,Wednesday_My_Dudes]
   + x[PGDE_Secondary_Curriculum_and_Pedagogy,Tutorial,15_00,Out_of_Touch_Thursday]
   + x[PGDE_Secondary_Curriculum_and_Pedagogy,Tutorial,15_00,It's_Friday_Thennnnn]
   + x[PGDE_Secondary_Curriculum_and_Pedagogy,Tutorial,16_00,Monday]
   + x[PGDE_Secondary_Curriculum_and_Pedagogy,Tutorial,16_00,Tuesday]
   + x[PGDE_Secondary_Curriculum_and_Pedagogy,Tutorial,16_00,Wednesday_My_Dudes]
   + x[PGDE_Secondary_Curriculum_and_Pedagogy,Tutorial,16_00,Out_of_Touch_Thursday]
   + x[PGDE_Secondary_Curriculum_and_Pedagogy,Tutorial,16_00,It's_Friday_Thennnnn]
   + x[PGDE_Secondary_Curriculum_and_Pedagogy,Tutorial,17_00,Monday]
   + x[PGDE_Secondary_Curriculum_and_Pedagogy,Tutorial,17_00,Tuesday]
   + x[PGDE_Secondary_Curriculum_and_Pedagogy,Tutorial,17_00,Wednesday_My_Dudes]
   + x[PGDE_Secondary_Curriculum_and_Pedagogy,Tutorial,17_00,Out_of_Touch_Thursday]
   + x[PGDE_Secondary_Curriculum_and_Pedagogy,Tutorial,17_00,It's_Friday_Thennnnn]
   = 56
Bounds
Binaries
 x[PGDE_Secondary_Curriculum_and_Pedagogy,Tutorial,09_00,Monday]
 x[PGDE_Secondary_Curriculum_and_Pedagogy,Tutorial,09_00,Tuesday]
 x[PGDE_Secondary_Curriculum_and_Pedagogy,Tutorial,09_00,Wednesday_My_Dudes]
 x[PGDE_Secondary_Curriculum_and_Pedagogy,Tutorial,09_00,Out_of_Touch_Thursday]
 x[PGDE_Secondary_Curriculum_and_Pedagogy,Tutorial,09_00,It's_Friday_Thennnnn]
 x[PGDE_Secondary_Curriculum_and_Pedagogy,Tutorial,10_00,Monday]
 x[PGDE_Secondary_Curriculum_and_Pedagogy,Tutorial,10_00,Tuesday]
 x[PGDE_Secondary_Curriculum_and_Pedagogy,Tutorial,10_00,Wednesday_My_Dudes]
 x[PGDE_Secondary_Curriculum_and_Pedagogy,Tutorial,10_00,Out_of_Touch_Thursday]
 x[PGDE_Secondary_Curriculum_and_Pedagogy,Tutorial,10_00,It's_Friday_Thennnnn]
 x[PGDE_Secondary_Curriculum_and_Pedagogy,Tutorial,11_00,Monday]
 x[PGDE_Secondary_Curriculum_and_Pedagogy,Tutorial,11_00,Tuesday]
 x[PGDE_Secondary_Curriculum_and_Pedagogy,Tutorial,11_00,Wednesday_My_Dudes]
 x[PGDE_Secondary_Curriculum_and_Pedagogy,Tutorial,11_00,Out_of_Touch_Thursday]
 x[PGDE_Secondary_Curriculum_and_Pedagogy,Tutorial,11_00,It's_Friday_Thennnnn]
 x[PGDE_Secondary_Curriculum_and_Pedagogy,Tutorial,12_00,Monday]
 x[PGDE_Secondary_Curriculum_and_Pedagogy,Tutorial,12_00,Tuesday]
 x[PGDE_Secondary_Curriculum_and_Pedagogy,Tutorial,12_00,Wednesday_My_Dudes]
 x[PGDE_Secondary_Curriculum_and_Pedagogy,Tutorial,12_00,Out_of_Touch_Thursday]
 x[PGDE_Secondary_Curriculum_and_Pedagogy,Tutorial,12_00,It's_Friday_Thennnnn]
 x[PGDE_Secondary_Curriculum_and_Pedagogy,Tutorial,13_00,Monday]
 x[PGDE_Secondary_Curriculum_and_Pedagogy,Tutorial,13_00,Tuesday]
 x[PGDE_Secondary_Curriculum_and_Pedagogy,Tutorial,13_00,Wednesday_My_Dudes]
 x[PGDE_Secondary_Curriculum_and_Pedagogy,Tutorial,13_00,Out_of_Touch_Thursday]
 x[PGDE_Secondary_Curriculum_and_Pedagogy,Tutorial,13_00,It's_Friday_Thennnnn]
 x[PGDE_Secondary_Curriculum_and_Pedagogy,Tutorial,14_00,Monday]
 x[PGDE_Secondary_Curriculum_and_Pedagogy,Tutorial,14_00,Tuesday]
 x[PGDE_Secondary_Curriculum_and_Pedagogy,Tutorial,14_00,Wednesday_My_Dudes]
 x[PGDE_Secondary_Curriculum_and_Pedagogy,Tutorial,14_00,Out_of_Touch_Thursday]
 x[PGDE_Secondary_Curriculum_and_Pedagogy,Tutorial,14_00,It's_Friday_Thennnnn]
 x[PGDE_Secondary_Curriculum_and_Pedagogy,Tutorial,15_00,Monday]
 x[PGDE_Secondary_Curriculum_and_Pedagogy,Tutorial,15_00,Tuesday]
 x[PGDE_Secondary_Curriculum_and_Pedagogy,Tutorial,15_00,Wednesday_My_Dudes]
 x[PGDE_Secondary_Curriculum_and_Pedagogy,Tutorial,15_00,Out_of_Touch_Thursday]
 x[PGDE_Secondary_Curriculum_and_Pedagogy,Tutorial,15_00,It's_Friday_Thennnnn]
 x[PGDE_Secondary_Curriculum_and_Pedagogy,Tutorial,16_00,Monday]
 x[PGDE_Secondary_Curriculum_and_Pedagogy,Tutorial,16_00,Tuesday]
 x[PGDE_Secondary_Curriculum_and_Pedagogy,Tutorial,16_00,Wednesday_My_Dudes]
 x[PGDE_Secondary_Curriculum_and_Pedagogy,Tutorial,16_00,Out_of_Touch_Thursday]
 x[PGDE_Secondary_Curriculum_and_Pedagogy,Tutorial,16_00,It's_Friday_Thennnnn]
 x[PGDE_Secondary_Curriculum_and_Pedagogy,Tutorial,17_00,Monday]
 x[PGDE_Secondary_Curriculum_and_Pedagogy,Tutorial,17_00,Tuesday]
 x[PGDE_Secondary_Curriculum_and_Pedagogy,Tutorial,17_00,Wednesday_My_Dudes]
 x[PGDE_Secondary_Curriculum_and_Pedagogy,Tutorial,17_00,Out_of_Touch_Thursday]
 x[PGDE_Secondary_Curriculum_and_Pedagogy,Tutorial,17_00,It's_Friday_Thennnnn]
End
